n_res = 4;
rc = [ 0, 0, 0, 0 ];
n_tasks = 30;
d = [ 7, 1, 10, 5, 7, 5, 6, 10, 5, 4, 1, 10, 7, 8, 10, 2, 4, 2, 10, 7, 7, 5, 1, 9, 2, 6, 3, 3, 1, 8 ];
rr = [| 0, 0, 0, 0, 0, 0, 0, 0, 0, 0, 0, 0, 0, 0, 0, 0, 0, 0, 0, 0, 0, 0, 0, 0, 0, 0, 0, 0, 0, 0
      | 0, 0, 0, 0, 0, 0, 0, 0, 0, 0, 0, 0, 0, 0, 0, 0, 0, 0, 0, 0, 0, 0, 0, 0, 0, 0, 0, 0, 0, 0
      | 0, 0, 0, 0, 0, 0, 0, 0, 0, 0, 0, 0, 0, 0, 0, 0, 0, 0, 0, 0, 0, 0, 0, 0, 0, 0, 0, 0, 0, 0
      | 0, 0, 0, 0, 0, 0, 0, 0, 0, 0, 0, 0, 0, 0, 0, 0, 0, 0, 0, 0, 0, 0, 0, 0, 0, 0, 0, 0, 0, 0 |];
suc = [ { 4, 8, 11 },
       { 7, 15, 19 },
       { 5, 6, 9 },
       { 5, 6, 12 },
       { 7, 13, 14 },
       { 16, 25, 27 },
       { 16, 18, 26 },
       { 10, 17, 20 },
       { 10, 11, 12 },
       { 13, 14, 21 },
       { 13, 18, 21 },
       { 15, 17, 20 },
       { 15, 19, 22 },
       { 19, 26, 27 },
       { 16, 26, 30 },
       { 29 },
       { 23, 25 },
       { 20, 25 },
       { 28 },
       { 22 },
       { 22 },
       { 23, 29 },
       { 24, 28 },
       { 27 },
       { 29, 30 },
       { 28 },
       { 30 },
       {  },
       {  },
       {  } ];
